benchmarks/bfuzz0/299282446017992415923083318361927924594.smt2
(set-logic QF_FP)
(declare-const x0 (_ FloatingPoint 11 53))
(declare-const x1 (_ FloatingPoint 11 53))
(declare-const x2 (_ FloatingPoint 11 53))
(declare-const x3 (_ FloatingPoint 11 53))
(declare-const x4 (_ FloatingPoint 11 53))
(declare-const x5 (_ FloatingPoint 11 53))
(declare-const x6 (_ FloatingPoint 11 53))
(declare-const x7 (_ FloatingPoint 11 53))
(declare-const x8 (_ FloatingPoint 11 53))
(declare-const x9 (_ FloatingPoint 11 53))
(declare-const x10 (_ FloatingPoint 11 53))
(declare-const x11 (_ FloatingPoint 11 53))
(declare-const x12 (_ FloatingPoint 11 53))
(declare-const x13 (_ FloatingPoint 11 53))
(declare-const x14 (_ FloatingPoint 11 53))
(declare-const x15 (_ FloatingPoint 11 53))
(declare-const x16 (_ FloatingPoint 11 53))
(declare-const x17 (_ FloatingPoint 11 53))
(declare-const x18 (_ FloatingPoint 11 53))
(declare-const x19 (_ FloatingPoint 11 53))
(declare-const x20 (_ FloatingPoint 11 53))
(assert (fp.geq (fp.neg (fp.sub RNE (fp.mul RNE (fp.neg x3) (fp.add RNE x12 x16)) (fp.sub RNE (fp.mul RNE x18 x8) (fp.add RNE x6 x0)))) (fp.sub RNE (fp.neg (fp.div RNE (fp.mul RNE x12 x13) (fp.add RNE x12 x2))) (fp.neg (fp.div RNE (fp.div RNE x15 x0) (fp.sub RNE x6 x12))))))
(assert (fp.geq (fp.neg (fp.mul RNE (fp.neg (fp.add RNE x13 x14)) (fp.sub RNE (fp.neg x13) (fp.neg x9)))) (fp.sub RNE (fp.div RNE (fp.neg (fp.mul RNE x17 x1)) (fp.div RNE (fp.div RNE x2 x20) (fp.add RNE x4 x19))) (fp.add RNE (fp.add RNE (fp.div RNE x16 x7) (fp.div RNE x3 x0)) (fp.div RNE (fp.div RNE x2 x8) (fp.sub RNE x12 x0))))))
(assert (fp.gt (fp.neg (fp.neg (fp.sub RNE (fp.div RNE x11 x6) (fp.sub RNE x1 x20)))) (fp.div RNE (fp.add RNE (fp.sub RNE (fp.sub RNE x5 x3) (fp.neg x5)) (fp.div RNE (fp.div RNE x19 x4) (fp.div RNE x8 x5))) (fp.mul RNE (fp.add RNE (fp.sub RNE x4 x2) (fp.mul RNE x18 x16)) (fp.add RNE (fp.add RNE x4 x14) (fp.div RNE x6 x8))))))
(check-sat)
