db/data/299282446017992415923083318361927924594.z3.out
-------------------
2500.229337101
